results_rootrelaxation/bin018_050_012.srr.sol
solution status: optimal solution found
objective value:                                    0
_var61_                             0.165811192606336 	(obj:0)
_var133_                            0.152925798340653 	(obj:0)
_var517_                           0.0494894215942038 	(obj:0)
_var946_                            0.103143645740655 	(obj:0)
_var1469_                          0.0011461595999708 	(obj:0)
_var1851_                          0.0547511445002522 	(obj:0)
_var1982_                           0.232008040960358 	(obj:0)
_var2268_                           0.071888358438098 	(obj:0)
_var2636_                           0.105533340159629 	(obj:0)
_var2744_                           0.019433049887361 	(obj:0)
_var2745_                           0.203615791722783 	(obj:0)
_var2761_                           0.174817950109367 	(obj:0)
_var2763_                          0.0514450240434996 	(obj:0)
_var2769_                           0.305552821148457 	(obj:0)
_var2772_                           0.170827545002776 	(obj:0)
_var2776_                           0.269925499804437 	(obj:0)
_var2778_                         0.00707119129594042 	(obj:0)
_var2785_                          0.0618980449907827 	(obj:0)
_var2787_                           0.256331366020845 	(obj:0)
_var2788_                           0.104965756086977 	(obj:0)
_var2789_                           0.110689683448313 	(obj:0)
_var2791_                           0.165248981202017 	(obj:0)
_var2793_                          0.0756580849847305 	(obj:0)
_var2794_                           0.276920712574481 	(obj:0)
_var2796_                         0.00129018946413521 	(obj:0)
_var2797_                          0.0197429940604828 	(obj:0)
_var2800_                          0.0878999413297858 	(obj:0)
_var2802_                          0.0932477886585187 	(obj:0)
_var2803_                           0.033453281855172 	(obj:0)
_var2812_                           0.031111911952314 	(obj:0)
_var2814_                           0.195320269789969 	(obj:0)
_var2816_                           0.340931381696555 	(obj:0)
_var2818_                           0.218940765755349 	(obj:0)
_var2819_                           0.161353845489488 	(obj:0)
_var2820_                          0.0553844751942124 	(obj:0)
_var2826_                           0.206169245201588 	(obj:0)
_var2829_                           0.216017191510848 	(obj:0)
_var2839_                           0.165305575980481 	(obj:0)
_var2840_                         0.000140476375188937 	(obj:0)
_var2848_                           0.032359113356131 	(obj:0)
_var2849_                           0.272298157726338 	(obj:0)
_var2856_                         0.00107435742464651 	(obj:0)
_var2858_                           0.156871876635747 	(obj:0)
_var2859_                           0.220342658318627 	(obj:0)
_var2862_                           0.114050706148481 	(obj:0)
_var2865_                           0.304883589172629 	(obj:0)
_var2866_                          0.0706567886246053 	(obj:0)
_var2867_                           0.231611790743143 	(obj:0)
_var2868_                           0.159442272656282 	(obj:0)
_var2871_                          0.0527207849397945 	(obj:0)
_var2874_                           0.119396565105347 	(obj:0)
_var2880_                          0.0103392430330377 	(obj:0)
_var2881_                           0.250301183137622 	(obj:0)
_var2882_                           0.129482518683826 	(obj:0)
_var2885_                           0.128462968244687 	(obj:0)
_var2886_                           0.162853533315815 	(obj:0)
_var2888_                           0.104303407712781 	(obj:0)
_var2890_                          0.0600862539938566 	(obj:0)
_var2891_                         0.00524131783388909 	(obj:0)
_var2892_                          0.0960856243204047 	(obj:0)
_var2894_                          0.0589489623614593 	(obj:0)
_var2896_                           0.125608585868885 	(obj:0)
_var2897_                           0.140677892384081 	(obj:0)
_var2898_                           0.147270026544721 	(obj:0)
_var2901_                          0.0412541665362303 	(obj:0)
_var2902_                          0.0844898959595126 	(obj:0)
_var2903_                           0.203623503917377 	(obj:0)
_var2904_                            0.15273175829098 	(obj:0)
_var2906_                           0.279321789608654 	(obj:0)
_var2908_                          0.0913509321341578 	(obj:0)
_var2909_                           0.120937157138682 	(obj:0)
_var2910_                           0.177377073175935 	(obj:0)
_var2911_                           0.243038375438246 	(obj:0)
_var2912_                           0.113522868067347 	(obj:0)
_var2913_                           0.125197719657303 	(obj:0)
_var2917_                           0.109952547527662 	(obj:0)
_var2919_                          0.0810476963057541 	(obj:0)
_var2920_                           0.178394212775575 	(obj:0)
_var2921_                          0.0955627841425666 	(obj:0)
_var2923_                           0.129710743231046 	(obj:0)
_var2924_                           0.220170663247267 	(obj:0)
_var2926_                            0.26418450301641 	(obj:0)
_var2927_                         0.00895310090140546 	(obj:0)
_var2928_                          0.0631531952333878 	(obj:0)
_var2929_                          0.0450500318453891 	(obj:0)
_var2931_                           0.010183338912256 	(obj:0)
_var2932_                           0.114917227159679 	(obj:0)
_var2934_                           0.149702968289866 	(obj:0)
_var2935_                         0.00903737643299017 	(obj:0)
_var2936_                           0.175090630533841 	(obj:0)
_var2941_                          0.0427493451875299 	(obj:0)
_var2942_                           0.114790786637929 	(obj:0)
_var2945_                          0.0839101262361834 	(obj:0)
_var2946_                           0.237767673537457 	(obj:0)
_var2948_                           0.147242061566987 	(obj:0)
_var2949_                          0.0023288462419514 	(obj:0)
_var2950_                           0.102526342723806 	(obj:0)
_var2952_                          0.0190765746349198 	(obj:0)
_var2954_                            0.17475602231864 	(obj:0)
_var2956_                          0.0690996512080764 	(obj:0)
_var2957_                          0.0611148953083281 	(obj:0)
_var2958_                           0.185605957854853 	(obj:0)
_var2959_                           0.180695028203262 	(obj:0)
_var2960_                           0.117230171343908 	(obj:0)
_var2963_                           0.171402016115263 	(obj:0)
_var2966_                           0.133174886587038 	(obj:0)
_var2968_                          0.0648902295842141 	(obj:0)
_var2972_                           0.166535294248566 	(obj:0)
_var2973_                          0.0468428881070361 	(obj:0)
_var2974_                           0.149306647791318 	(obj:0)
_var2976_                           0.101334325099507 	(obj:0)
_var2977_                          0.0808829850369634 	(obj:0)
_var2978_                           0.276699721716617 	(obj:0)
_var2979_                           0.202914754056086 	(obj:0)
_var2981_                           0.130370148210193 	(obj:0)
_var2982_                          0.0971638380710229 	(obj:0)
_var2983_                          0.0416774049716721 	(obj:0)
_var2986_                           0.220953679822055 	(obj:0)
_var2987_                           0.093243551661163 	(obj:0)
_var2990_                           0.106159547519394 	(obj:0)
_var2994_                          0.0960046404906005 	(obj:0)
_var2995_                            0.06247063473882 	(obj:0)
_var2996_                           0.141865341473049 	(obj:0)
_var2998_                           0.119577190975318 	(obj:0)
_var3000_                          0.0158173692375156 	(obj:0)
_var3001_                          0.0163944861171767 	(obj:0)
_var3002_                          0.0336572443000545 	(obj:0)
_var3003_                          0.0311686627620986 	(obj:0)
_var3004_                           0.111774957803119 	(obj:0)
_var3005_                           0.060495964091357 	(obj:0)
_var3006_                           0.115744685838444 	(obj:0)
_var3008_                          0.0391558900421937 	(obj:0)
_var3009_                           0.200013380637769 	(obj:0)
_var3011_                          0.0678030420172839 	(obj:0)
_var3014_                          0.0821429001576969 	(obj:0)
_var3015_                          0.0831751544041664 	(obj:0)
_var3017_                          0.0896070749328821 	(obj:0)
_var3018_                            0.14685491601003 	(obj:0)
_var3019_                          0.0303782614585324 	(obj:0)
_var3020_                         0.00282272163135307 	(obj:0)
_var3021_                           0.054212523508311 	(obj:0)
_var3022_                         0.000935997825886797 	(obj:0)
_var3024_                         0.00592080520848902 	(obj:0)
_var3026_                          0.0200287095866234 	(obj:0)
_var3029_                          0.0889078299465783 	(obj:0)
_var3031_                         0.00453092548767459 	(obj:0)
_var3032_                          0.0250997821611737 	(obj:0)
_var3033_                          0.0234183916445154 	(obj:0)
_var3035_                         0.000990746042449512 	(obj:0)
_var3036_                          0.0364557615283692 	(obj:0)
_var3038_                          0.0243355619975433 	(obj:0)
_var3042_                          0.0850586679976145 	(obj:0)
